c preprocessed version of celar01-wpp, 58 vertices, 311 edges
p td 58 311
1 0
3 0
0 7
0 9
0 10
0 26
0 13
0 20
0 22
0 21
0 27
0 23
0 45
0 24
0 25
0 46
42 0
1 2
1 4
1 7
1 26
1 30
1 21
1 49
1 29
1 45
1 46
1 50
1 47
1 48
1 3
1 27
2 3
2 4
2 7
2 10
2 26
2 30
2 29
2 45
2 46
2 47
2 27
2 28
2 50
3 4
3 7
3 8
3 10
3 26
3 12
3 30
3 49
3 45
3 50
3 48
3 13
3 28
3 46
5 4
4 9
4 7
4 10
4 27
4 49
4 29
4 31
4 50
4 48
4 8
4 26
4 12
4 13
4 30
4 21
4 18
4 46
4 47
6 5
5 9
5 31
5 7
5 11
5 32
5 50
6 7
6 9
6 12
6 31
6 32
6 47
6 11
6 50
7 8
7 10
7 26
7 13
7 20
7 22
7 30
7 21
7 27
7 49
7 23
7 29
7 45
7 18
7 24
7 46
7 47
7 48
7 11
7 31
7 28
7 50
9 8
8 11
8 26
8 12
8 13
8 50
8 10
8 45
9 10
9 12
9 13
9 31
9 18
9 11
10 11
10 12
10 13
10 48
10 45
11 12
11 13
12 13
12 14
12 15
12 48
13 14
13 31
13 24
13 15
14 15
14 16
14 32
14 19
14 23
14 18
17 14
15 16
15 32
17 15
18 15
17 16
18 16
18 17
17 34
35 17
41 17
43 17
18 19
18 23
26 18
22 18
20 19
19 23
42 19
20 21
20 22
20 23
20 24
42 20
22 21
21 49
21 23
21 24
22 23
26 22
22 24
23 24
24 25
26 25
26 27
26 50
26 48
26 28
27 28
27 49
27 50
27 48
29 28
28 48
30 29
29 45
29 46
29 47
30 31
30 46
31 32
31 45
31 46
31 48
31 50
33 32
33 34
33 35
33 36
33 37
38 33
35 34
34 36
41 34
43 34
44 34
35 36
41 35
43 35
36 37
44 36
38 37
44 37
38 39
38 44
39 40
39 43
39 44
40 41
40 42
43 40
44 40
41 42
43 41
44 43
45 46
45 47
46 47
49 48
50 48
49 50
51 2
51 3
51 6
51 4
51 7
51 8
51 10
51 26
51 52
51 53
51 30
51 45
51 54
51 55
51 56
51 46
51 9
51 11
51 29
52 0
52 7
52 16
52 21
52 54
52 55
52 56
52 23
52 53
53 0
53 7
53 16
53 23
53 54
53 55
53 56
54 3
54 7
54 55
54 56
54 26
55 3
55 7
55 56
55 26
56 1
56 2
56 3
56 9
56 7
56 11
56 10
56 12
56 13
56 26
56 30
56 49
56 29
56 25
56 46
56 47
57 51
57 52
57 53
57 54
57 55
57 56
57 4
57 38
57 39
57 44
